NAME : traveling-santa-2018-prime-paths.29138.tour
COMMENT : Length = 29138
COMMENT : Found by LKH [Keld Helsgaun] Sun Jun 12 19:59:44 2022
TYPE : TOUR
DIMENSION : 100
TOUR_SECTION
1
42
57
77
82
51
81
19
79
45
23
14
39
90
28
4
60
20
88
63
3
94
30
52
6
43
100
99
59
85
24
64
26
47
80
92
33
11
16
31
15
71
58
37
62
95
72
83
73
10
61
34
68
36
96
87
7
46
50
86
74
12
32
69
38
2
91
9
97
5
89
13
41
22
40
48
67
21
54
56
78
44
18
35
66
76
98
27
65
29
8
75
93
53
84
55
17
25
70
49
-1
EOF
